(set-logic HORN)
(declare-fun state ((Array Int Int) Int (Array Int Int) Int Bool Bool Int Bool Int Bool Int Bool Int (Array Int Int) (Array Int Int) (Array Int Int) Int Bool Bool Bool Int Int Int (Array Int Int) (Array Int Int) (Array Int Int) Int Bool Bool Bool Bool Int Int Int (Array Int Int) (Array Int Int) (Array Int Int) Bool Int (Array Int Int) (Array Int Int) Bool Bool Bool Bool Int Int Int (Array Int Int) (Array Int Int) (Array Int Int) Bool Int (Array Int Int) (Array Int Int) Bool Bool Bool Int Bool Bool Bool Bool Int (Array Int Int) (Array Int Int) Bool Bool Int (Array Int Int) (Array Int Int) Bool Bool Bool Int Int Bool Int (Array Int Int) (Array Int Int) (Array Int Int) Bool Int Bool Int Int Int Int Int Int Int Bool Int Int Int Bool (Array Int Int) Int (Array Int Int) (Array Int Int) Int Bool) Bool)
(assert (forall ((|.y.7| (Array Int Int)) (|C3_0| Int) (|A_2| (Array Int Int)) (|D3_0| Int) (|.loc.8| Bool) (|.loc.9| Bool) (|X_0| Int) (|D1_0| Bool) (|V_0| Int) (|P_0| Bool) (|F1_0| Int) (|S1_0| Bool) (|E1_0| Int) (|C1_0| (Array Int Int)) (|B1_0| (Array Int Int)) (|W_0| (Array Int Int)) (|Z1_0| Int) (|J2_0| Bool) (|A2_0| Bool) (|R1_0| Bool) (|U1_0| Int) (|K1_0| Int) (|T1_0| Int) (|Q1_0| (Array Int Int)) (|P1_0| (Array Int Int)) (|J1_0| (Array Int Int)) (|P2_0| Int) (|Z2_0| Bool) (|D2_0| Bool) (|Q2_0| Bool) (|E2_0| Bool) (|C2_0| Int) (|X1_0| Int) (|H2_0| Int) (|F2_0| (Array Int Int)) (|B2_0| (Array Int Int)) (|W1_0| (Array Int Int)) (|K2_0| Bool) (|I2_0| Int) (|G2_0| (Array Int Int)) (|Y1_0| (Array Int Int)) (|X3_0| Bool) (|T2_0| Bool) (|J3_0| Bool) (|U2_0| Bool) (|S2_0| Int) (|N2_0| Int) (|X2_0| Int) (|V2_0| (Array Int Int)) (|R2_0| (Array Int Int)) (|M2_0| (Array Int Int)) (|A3_0| Bool) (|Y2_0| Int) (|W2_0| (Array Int Int)) (|O2_0| (Array Int Int)) (|J_0| Bool) (|L_0| Bool) (|M_0| Bool) (|I1_0| Int) (|N_0| Bool) (|O_0| Bool) (|Z_0| Bool) (|Q_0| Bool) (|A1_0| Int) (|Y_0| (Array Int Int)) (|U_0| (Array Int Int)) (|M1_0| Bool) (|N1_0| Bool) (|O1_0| Int) (|L1_0| (Array Int Int)) (|H1_0| (Array Int Int)) (|M3_0| Bool) (|Q3_0| Bool) (|E3_0| Bool) (|V3_0| Int) (|P3_0| Int) (|R3_0| Bool) (|G3_0| Int) (|T3_0| (Array Int Int)) (|O3_0| (Array Int Int)) (|F3_0| (Array Int Int)) (|S3_0| Bool) (|E_1| Int) (|R_0| Bool) (|T_0| Int) (|G1_0| Int) (|V1_0| Int) (|L2_0| Int) (|I_0| Int) (|B3_0| Int) (|I3_0| Int) (|K_0| Bool) (|H_1| Int) (|G_1| Int) (|F_1| Int) (|N3_0| Bool) (|K3_0| (Array Int Int)) (|L3_0| Int) (|U3_0| (Array Int Int)) (|H3_0| (Array Int Int)) (|W3_0| Int) (|Y3_0| Bool) (|.loc.14| Bool) (|.loc.15| Bool) (|.y.11| Int) (|.y.12| (Array Int Int)) (|.y.13| Int) (|.y.10| (Array Int Int)) (|.xtv.1| Int) (|.xtv.2| Bool) (|.xtv.3| Int) (|.xtv.4| Bool) (|.xtv.5| Int) (|.xtv.6| Bool) (|.xtv.7| Int) (|.xtv.8| (Array Int Int)) (|.xtv.9| (Array Int Int)) (|.xtv.10| (Array Int Int)) (|.xtv.11| Int) (|.xtv.12| Bool) (|.xtv.13| Bool) (|.xtv.14| Bool) (|.xtv.15| Int) (|.xtv.16| Int) (|.xtv.17| Int) (|.xtv.18| (Array Int Int)) (|.xtv.19| (Array Int Int)) (|.xtv.20| (Array Int Int)) (|.xtv.21| Int) (|.xtv.22| Bool) (|.xtv.23| Bool) (|.xtv.24| Bool) (|.xtv.25| Bool) (|.xtv.26| Int) (|.xtv.27| Int) (|.xtv.28| Int) (|.xtv.29| (Array Int Int)) (|.xtv.30| (Array Int Int)) (|.xtv.31| (Array Int Int)) (|.xtv.32| Bool) (|.xtv.33| Int) (|.xtv.34| (Array Int Int)) (|.xtv.35| (Array Int Int)) (|.xtv.36| Bool) (|.xtv.37| Bool) (|.xtv.38| Bool) (|.xtv.39| Bool) (|.xtv.40| Int) (|.xtv.41| Int) (|.xtv.42| Int) (|.xtv.43| (Array Int Int)) (|.xtv.44| (Array Int Int)) (|.xtv.45| (Array Int Int)) (|.xtv.46| Bool) (|.xtv.47| Int) (|.xtv.48| (Array Int Int)) (|.xtv.49| (Array Int Int)) (|.xtv.50| Bool) (|.xtv.51| Bool) (|.xtv.52| Bool) (|.xtv.53| Int) (|.xtv.54| Bool) (|.xtv.55| Bool) (|.xtv.56| Bool) (|.xtv.57| Bool) (|.xtv.58| Int) (|.xtv.59| (Array Int Int)) (|.xtv.60| (Array Int Int)) (|.xtv.61| Bool) (|.xtv.62| Bool) (|.xtv.63| Int) (|.xtv.64| (Array Int Int)) (|.xtv.65| (Array Int Int)) (|.xtv.66| Bool) (|.xtv.67| Bool) (|.xtv.68| Bool) (|.xtv.69| Int) (|.xtv.70| Int) (|.xtv.71| Bool) (|.xtv.72| Int) (|.xtv.73| (Array Int Int)) (|.xtv.74| (Array Int Int)) (|.xtv.75| (Array Int Int)) (|.xtv.76| Bool) (|.xtv.77| Int) (|.xtv.78| Bool) (|.xtv.79| Int) (|.xtv.80| Int) (|.xtv.81| Int) (|.xtv.82| Int) (|.xtv.83| Int) (|.xtv.84| Int) (|.xtv.85| Int) (|.xtv.86| Bool) (|.xtv.87| Int) (|.xtv.88| Int) (|.xtv.89| Int) (|.xtv.90| Bool) (|.xtv.91| (Array Int Int)) (|.xtv.92| Int) (|.xtv.93| (Array Int Int)) (|.xtv.94| (Array Int Int)) (|.xtv.95| Int) (|.xtv.96| Bool)) (=> (and (not .loc.9) (not .loc.8)) (state |.y.7| |C3_0| |A_2| |D3_0| |.loc.8| |.loc.9| |X_0| |D1_0| |V_0| |P_0| |F1_0| |S1_0| |E1_0| |C1_0| |B1_0| |W_0| |Z1_0| |J2_0| |A2_0| |R1_0| |U1_0| |K1_0| |T1_0| |Q1_0| |P1_0| |J1_0| |P2_0| |Z2_0| |D2_0| |Q2_0| |E2_0| |C2_0| |X1_0| |H2_0| |F2_0| |B2_0| |W1_0| |K2_0| |I2_0| |G2_0| |Y1_0| |X3_0| |T2_0| |J3_0| |U2_0| |S2_0| |N2_0| |X2_0| |V2_0| |R2_0| |M2_0| |A3_0| |Y2_0| |W2_0| |O2_0| |J_0| |L_0| |M_0| |I1_0| |N_0| |O_0| |Z_0| |Q_0| |A1_0| |Y_0| |U_0| |M1_0| |N1_0| |O1_0| |L1_0| |H1_0| |M3_0| |Q3_0| |E3_0| |V3_0| |P3_0| |R3_0| |G3_0| |T3_0| |O3_0| |F3_0| |S3_0| |E_1| |R_0| |T_0| |G1_0| |V1_0| |L2_0| |I_0| |B3_0| |I3_0| |K_0| |H_1| |G_1| |F_1| |N3_0| |K3_0| |L3_0| |U3_0| |H3_0| |W3_0| |Y3_0|))))
(assert (forall ((|.y.7| (Array Int Int)) (|C3_0| Int) (|A_2| (Array Int Int)) (|D3_0| Int) (|.loc.8| Bool) (|.loc.9| Bool) (|X_0| Int) (|D1_0| Bool) (|V_0| Int) (|P_0| Bool) (|F1_0| Int) (|S1_0| Bool) (|E1_0| Int) (|C1_0| (Array Int Int)) (|B1_0| (Array Int Int)) (|W_0| (Array Int Int)) (|Z1_0| Int) (|J2_0| Bool) (|A2_0| Bool) (|R1_0| Bool) (|U1_0| Int) (|K1_0| Int) (|T1_0| Int) (|Q1_0| (Array Int Int)) (|P1_0| (Array Int Int)) (|J1_0| (Array Int Int)) (|P2_0| Int) (|Z2_0| Bool) (|D2_0| Bool) (|Q2_0| Bool) (|E2_0| Bool) (|C2_0| Int) (|X1_0| Int) (|H2_0| Int) (|F2_0| (Array Int Int)) (|B2_0| (Array Int Int)) (|W1_0| (Array Int Int)) (|K2_0| Bool) (|I2_0| Int) (|G2_0| (Array Int Int)) (|Y1_0| (Array Int Int)) (|X3_0| Bool) (|T2_0| Bool) (|J3_0| Bool) (|U2_0| Bool) (|S2_0| Int) (|N2_0| Int) (|X2_0| Int) (|V2_0| (Array Int Int)) (|R2_0| (Array Int Int)) (|M2_0| (Array Int Int)) (|A3_0| Bool) (|Y2_0| Int) (|W2_0| (Array Int Int)) (|O2_0| (Array Int Int)) (|J_0| Bool) (|L_0| Bool) (|M_0| Bool) (|I1_0| Int) (|N_0| Bool) (|O_0| Bool) (|Z_0| Bool) (|Q_0| Bool) (|A1_0| Int) (|Y_0| (Array Int Int)) (|U_0| (Array Int Int)) (|M1_0| Bool) (|N1_0| Bool) (|O1_0| Int) (|L1_0| (Array Int Int)) (|H1_0| (Array Int Int)) (|M3_0| Bool) (|Q3_0| Bool) (|E3_0| Bool) (|V3_0| Int) (|P3_0| Int) (|R3_0| Bool) (|G3_0| Int) (|T3_0| (Array Int Int)) (|O3_0| (Array Int Int)) (|F3_0| (Array Int Int)) (|S3_0| Bool) (|E_1| Int) (|R_0| Bool) (|T_0| Int) (|G1_0| Int) (|V1_0| Int) (|L2_0| Int) (|I_0| Int) (|B3_0| Int) (|I3_0| Int) (|K_0| Bool) (|H_1| Int) (|G_1| Int) (|F_1| Int) (|N3_0| Bool) (|K3_0| (Array Int Int)) (|L3_0| Int) (|U3_0| (Array Int Int)) (|H3_0| (Array Int Int)) (|W3_0| Int) (|Y3_0| Bool) (|.loc.14| Bool) (|.loc.15| Bool) (|.y.11| Int) (|.y.12| (Array Int Int)) (|.y.13| Int) (|.y.10| (Array Int Int)) (|.xtv.1| Int) (|.xtv.2| Bool) (|.xtv.3| Int) (|.xtv.4| Bool) (|.xtv.5| Int) (|.xtv.6| Bool) (|.xtv.7| Int) (|.xtv.8| (Array Int Int)) (|.xtv.9| (Array Int Int)) (|.xtv.10| (Array Int Int)) (|.xtv.11| Int) (|.xtv.12| Bool) (|.xtv.13| Bool) (|.xtv.14| Bool) (|.xtv.15| Int) (|.xtv.16| Int) (|.xtv.17| Int) (|.xtv.18| (Array Int Int)) (|.xtv.19| (Array Int Int)) (|.xtv.20| (Array Int Int)) (|.xtv.21| Int) (|.xtv.22| Bool) (|.xtv.23| Bool) (|.xtv.24| Bool) (|.xtv.25| Bool) (|.xtv.26| Int) (|.xtv.27| Int) (|.xtv.28| Int) (|.xtv.29| (Array Int Int)) (|.xtv.30| (Array Int Int)) (|.xtv.31| (Array Int Int)) (|.xtv.32| Bool) (|.xtv.33| Int) (|.xtv.34| (Array Int Int)) (|.xtv.35| (Array Int Int)) (|.xtv.36| Bool) (|.xtv.37| Bool) (|.xtv.38| Bool) (|.xtv.39| Bool) (|.xtv.40| Int) (|.xtv.41| Int) (|.xtv.42| Int) (|.xtv.43| (Array Int Int)) (|.xtv.44| (Array Int Int)) (|.xtv.45| (Array Int Int)) (|.xtv.46| Bool) (|.xtv.47| Int) (|.xtv.48| (Array Int Int)) (|.xtv.49| (Array Int Int)) (|.xtv.50| Bool) (|.xtv.51| Bool) (|.xtv.52| Bool) (|.xtv.53| Int) (|.xtv.54| Bool) (|.xtv.55| Bool) (|.xtv.56| Bool) (|.xtv.57| Bool) (|.xtv.58| Int) (|.xtv.59| (Array Int Int)) (|.xtv.60| (Array Int Int)) (|.xtv.61| Bool) (|.xtv.62| Bool) (|.xtv.63| Int) (|.xtv.64| (Array Int Int)) (|.xtv.65| (Array Int Int)) (|.xtv.66| Bool) (|.xtv.67| Bool) (|.xtv.68| Bool) (|.xtv.69| Int) (|.xtv.70| Int) (|.xtv.71| Bool) (|.xtv.72| Int) (|.xtv.73| (Array Int Int)) (|.xtv.74| (Array Int Int)) (|.xtv.75| (Array Int Int)) (|.xtv.76| Bool) (|.xtv.77| Int) (|.xtv.78| Bool) (|.xtv.79| Int) (|.xtv.80| Int) (|.xtv.81| Int) (|.xtv.82| Int) (|.xtv.83| Int) (|.xtv.84| Int) (|.xtv.85| Int) (|.xtv.86| Bool) (|.xtv.87| Int) (|.xtv.88| Int) (|.xtv.89| Int) (|.xtv.90| Bool) (|.xtv.91| (Array Int Int)) (|.xtv.92| Int) (|.xtv.93| (Array Int Int)) (|.xtv.94| (Array Int Int)) (|.xtv.95| Int) (|.xtv.96| Bool)) (=> (and (state |.y.7| |C3_0| |A_2| |D3_0| |.loc.8| |.loc.9| |X_0| |D1_0| |V_0| |P_0| |F1_0| |S1_0| |E1_0| |C1_0| |B1_0| |W_0| |Z1_0| |J2_0| |A2_0| |R1_0| |U1_0| |K1_0| |T1_0| |Q1_0| |P1_0| |J1_0| |P2_0| |Z2_0| |D2_0| |Q2_0| |E2_0| |C2_0| |X1_0| |H2_0| |F2_0| |B2_0| |W1_0| |K2_0| |I2_0| |G2_0| |Y1_0| |X3_0| |T2_0| |J3_0| |U2_0| |S2_0| |N2_0| |X2_0| |V2_0| |R2_0| |M2_0| |A3_0| |Y2_0| |W2_0| |O2_0| |J_0| |L_0| |M_0| |I1_0| |N_0| |O_0| |Z_0| |Q_0| |A1_0| |Y_0| |U_0| |M1_0| |N1_0| |O1_0| |L1_0| |H1_0| |M3_0| |Q3_0| |E3_0| |V3_0| |P3_0| |R3_0| |G3_0| |T3_0| |O3_0| |F3_0| |S3_0| |E_1| |R_0| |T_0| |G1_0| |V1_0| |L2_0| |I_0| |B3_0| |I3_0| |K_0| |H_1| |G_1| |F_1| |N3_0| |K3_0| |L3_0| |U3_0| |H3_0| |W3_0| |Y3_0|) (let ((.def_117 (not S3_0))) (let ((.def_118 (not R3_0))) (let ((.def_119 (not Q3_0))) (let ((.def_120 (or .def_118 .def_119))) (let ((.def_123 (not X3_0))) (let ((.def_125 (not Q_0))) (let ((.def_126 (not N_0))) (let ((.def_128 (not P_0))) (let ((.def_130 (not L_0))) (let ((.def_132 (not D2_0))) (let ((.def_134 (not K_0))) (let ((.def_135 (not J_0))) (let ((.def_139 (not T2_0))) (let ((.def_143 (not (<= I3_0 0)))) (let ((.def_145 (<= D3_0 0))) (let ((.def_148 (not (<= G3_0 0)))) (let ((.def_151 (and J2_0 N1_0))) (let ((.def_152 (not J2_0))) (let ((.def_154 (and S1_0 J2_0))) (let ((.def_156 (and S1_0 Z_0))) (let ((.def_157 (not S1_0))) (let ((.def_159 (and D1_0 S1_0))) (let ((.def_162 (not (<= K1_0 0)))) (let ((.def_169 (not D1_0))) (let ((.def_174 (and (or (or .def_128 .def_145) (not (<= V_0 0))) (or (or .def_145 .def_169) (not (<= X_0 0)))))) (let ((.def_177 (or .def_157 .def_169))) (let ((.def_179 (or .def_177 (= X_0 F1_0)))) (let ((.def_182 (or .def_177 (= F1_0 E1_0)))) (let ((.def_185 (or .def_177 (= C1_0 B1_0)))) (let ((.def_188 (or .def_177 (= C1_0 W_0)))) (let ((.def_193 (or (or .def_145 .def_152) (not (<= Z1_0 0))))) (let ((.def_196 (or .def_152 .def_157))) (let ((.def_198 (or .def_196 (= A2_0 R1_0)))) (let ((.def_201 (or .def_196 (= U1_0 K1_0)))) (let ((.def_204 (or .def_196 (= U1_0 T1_0)))) (let ((.def_207 (or .def_196 (= Q1_0 P1_0)))) (let ((.def_210 (or .def_196 (= Q1_0 J1_0)))) (let ((.def_213 (or .def_196 (not R1_0)))) (let ((.def_215 (not Z2_0))) (let ((.def_219 (or (or .def_145 .def_215) (not (<= P2_0 0))))) (let ((.def_224 (or (or .def_215 (and J2_0 Z2_0)) (and Z2_0 D2_0)))) (let ((.def_226 (or .def_132 .def_215))) (let ((.def_228 (or .def_226 (= Q2_0 E2_0)))) (let ((.def_231 (or .def_226 (= C2_0 X1_0)))) (let ((.def_234 (or .def_226 (= C2_0 H2_0)))) (let ((.def_237 (or .def_226 (= F2_0 B2_0)))) (let ((.def_240 (or .def_226 (= B2_0 W1_0)))) (let ((.def_244 (or .def_132 (or .def_215 (not E2_0))))) (let ((.def_246 (or .def_152 .def_215))) (let ((.def_248 (or .def_246 (= A2_0 K2_0)))) (let ((.def_251 (or .def_246 (= Q2_0 K2_0)))) (let ((.def_254 (or .def_246 (= Z1_0 I2_0)))) (let ((.def_257 (or .def_246 (= H2_0 I2_0)))) (let ((.def_260 (or .def_246 (= F2_0 G2_0)))) (let ((.def_263 (or .def_246 (= G2_0 Y1_0)))) (let ((.def_270 (or (or .def_123 (and Z2_0 X3_0)) (and X3_0 T2_0)))) (let ((.def_272 (or .def_123 .def_139))) (let ((.def_274 (or .def_272 (= J3_0 U2_0)))) (let ((.def_277 (or .def_272 (= S2_0 N2_0)))) (let ((.def_280 (or .def_272 (= S2_0 X2_0)))) (let ((.def_283 (or .def_272 (= V2_0 R2_0)))) (let ((.def_286 (or .def_272 (= R2_0 M2_0)))) (let ((.def_290 (or .def_139 (or .def_123 (not U2_0))))) (let ((.def_292 (or .def_123 .def_215))) (let ((.def_294 (or .def_292 (= Q2_0 A3_0)))) (let ((.def_297 (or .def_292 (= J3_0 A3_0)))) (let ((.def_300 (or .def_292 (= P2_0 Y2_0)))) (let ((.def_303 (or .def_292 (= X2_0 Y2_0)))) (let ((.def_306 (or .def_292 (= V2_0 W2_0)))) (let ((.def_309 (or .def_292 (= W2_0 O2_0)))) (let ((.def_314 (or (or .def_135 .def_145) (not (<= N2_0 0))))) (let ((.def_321 (or (or .def_130 .def_145) (not (<= X1_0 0))))) (let ((.def_326 (or .def_135 (or .def_130 (not M_0))))) (let ((.def_331 (or (or .def_126 .def_145) (not (<= I1_0 0))))) (let ((.def_336 (or .def_130 (or .def_126 (not O_0))))) (let ((.def_338 (not Z_0))) (let ((.def_340 (or .def_128 (or Q_0 .def_338)))) (let ((.def_342 (or .def_157 .def_338))) (let ((.def_344 (or .def_342 (= V_0 A1_0)))) (let ((.def_347 (or .def_342 (= E1_0 A1_0)))) (let ((.def_350 (or .def_342 (= B1_0 Y_0)))) (let ((.def_353 (or .def_342 (= Y_0 U_0)))) (let ((.def_355 (not N1_0))) (let ((.def_356 (or .def_152 .def_355))) (let ((.def_358 (or .def_356 (= A2_0 M1_0)))) (let ((.def_361 (or .def_356 (= I1_0 O1_0)))) (let ((.def_364 (or .def_356 (= T1_0 O1_0)))) (let ((.def_367 (or .def_356 (= P1_0 L1_0)))) (let ((.def_370 (or .def_356 (= L1_0 H1_0)))) (let ((.def_372 (or M1_0 .def_356))) (let ((.def_375 (or .def_126 (or O_0 .def_355)))) (let ((.def_377 (not M3_0))) (let ((.def_379 (or E3_0 (or .def_119 .def_377)))) (let ((.def_382 (or .def_120 (= V3_0 P3_0)))) (let ((.def_385 (or .def_120 (= P3_0 G3_0)))) (let ((.def_388 (or .def_120 (= T3_0 O3_0)))) (let ((.def_391 (or .def_120 (= O3_0 F3_0)))) (let ((.def_394 (or .def_120 (not E3_0)))) (let ((.def_397 (or .def_119 (or .def_117 .def_118)))) (let ((.def_402 (or .def_128 (= Q_0 (= C3_0 1))))) (let ((.def_408 (* 400 C3_0))) (let ((.def_414 (or .def_128 (= (+ .def_408 (+ D3_0 (* (- 1) V_0))) (- 8))))) (let ((.def_421 (or .def_128 (= (+ C3_0 (* (- 1) E_1)) (- 3))))) (let ((.def_423 (not .def_145))) (let ((.def_424 (or .def_128 .def_423))) (let ((.def_427 (or .def_128 (and P_0 R_0)))) (let ((.def_433 (or .def_169 (= (+ .def_408 (+ D3_0 (* (- 1) X_0))) (- 8))))) (let ((.def_438 (or .def_169 (= (+ C3_0 (* (- 1) T_0)) (- 3))))) (let ((.def_440 (or .def_169 .def_423))) (let ((.def_443 (or .def_169 (and D1_0 R_0)))) (let ((.def_450 (or .def_157 (= (+ C3_0 (* (- 1) G1_0)) (- 4))))) (let ((.def_458 (or .def_157 (= (+ .def_408 (+ D3_0 (* (- 1) K1_0))) (- 16))))) (let ((.def_461 (or .def_132 (and D2_0 L_0)))) (let ((.def_469 (or .def_152 (= (+ .def_408 (+ D3_0 (* (- 1) Z1_0))) (- 24))))) (let ((.def_476 (or .def_152 (= (+ C3_0 (* (- 1) V1_0)) (- 5))))) (let ((.def_479 (or .def_139 (and T2_0 J_0)))) (let ((.def_487 (or .def_215 (= (+ .def_408 (+ D3_0 (* (- 1) P2_0))) (- 32))))) (let ((.def_494 (or .def_215 (= (+ C3_0 (* (- 1) L2_0)) (- 6))))) (let ((.def_498 (or .def_119 (= E3_0 (= C3_0 5))))) (let ((.def_505 (or .def_119 (= (+ C3_0 (* (- 1) I_0)) (- 7))))) (let ((.def_513 (or .def_119 (= (+ .def_408 (+ D3_0 (* (- 1) G3_0))) (- 40))))) (let ((.def_515 (or .def_119 .def_423))) (let ((.def_518 (or .def_119 (and J_0 Q3_0)))) (let ((.def_523 (or .def_123 (= (+ C3_0 (* (- 1) B3_0)) (- 7))))) (let ((.def_529 (or .def_123 (= (+ .def_408 (+ D3_0 (* (- 1) I3_0))) (- 40))))) (let ((.def_533 (or .def_135 (= K_0 (= C3_0 4))))) (let ((.def_538 (or .def_135 (= (+ C3_0 (* (- 1) H_1)) (- 6))))) (let ((.def_544 (or .def_135 (= (+ .def_408 (+ D3_0 (* (- 1) N2_0))) (- 32))))) (let ((.def_546 (or .def_135 .def_423))) (let ((.def_549 (or .def_135 (and J_0 L_0)))) (let ((.def_553 (or .def_130 (= M_0 (= C3_0 3))))) (let ((.def_558 (or .def_130 (= (+ C3_0 (* (- 1) G_1)) (- 5))))) (let ((.def_564 (or .def_130 (= (+ .def_408 (+ D3_0 (* (- 1) X1_0))) (- 24))))) (let ((.def_566 (or .def_130 .def_423))) (let ((.def_569 (or .def_130 (and L_0 N_0)))) (let ((.def_574 (or .def_126 (= O_0 (= C3_0 2))))) (let ((.def_579 (or .def_126 (= (+ C3_0 (* (- 1) F_1)) (- 4))))) (let ((.def_585 (or .def_126 (= (+ .def_408 (+ D3_0 (* (- 1) I1_0))) (- 16))))) (let ((.def_587 (or .def_126 .def_423))) (let ((.def_590 (or .def_126 (and P_0 N_0)))) (let ((.def_593 (or .def_338 (and P_0 Z_0)))) (let ((.def_596 (or .def_355 (and N_0 N1_0)))) (let ((.def_599 (or .def_377 (and M3_0 Q3_0)))) (let ((.def_601 (or Q3_0 .def_118))) (let ((.def_604 (not (<= 6 C3_0)))) (let ((.def_610 (or .def_145 (not (<= (+ .def_408 D3_0) 0))))) (let ((.def_612 (not R_0))) (let ((.def_613 (= C3_0 0))) (let ((.def_615 (or .def_612 (or .def_169 .def_613)))) (let ((.def_619 (or .def_128 (or .def_612 (not .def_613))))) (let ((.def_622 (or .def_377 (not N3_0)))) (let ((.def_625 (or .def_377 (= T3_0 K3_0)))) (let ((.def_628 (or .def_377 (= F3_0 K3_0)))) (let ((.def_631 (or .def_377 (= V3_0 L3_0)))) (let ((.def_634 (or .def_377 (= G3_0 L3_0)))) (let ((.def_637 (or .def_123 (= U3_0 H3_0)))) (let ((.def_640 (or .def_123 (= T3_0 U3_0)))) (let ((.def_643 (or .def_123 (= I3_0 W3_0)))) (let ((.def_646 (or .def_123 (= V3_0 W3_0)))) (let ((.def_649 (or .def_123 (= J3_0 Y3_0)))) (let ((.def_653 (or (and Q3_0 R3_0) (or X3_0 M3_0)))) (let ((.def_665 (not .loc.15))) (and (not .loc.9) (or (or (and (not .loc.14) (and (and .loc.8 (and (or .def_117 .def_120) (and (or (not Y3_0) .def_123) (and (and (and (and (and (and (and (and (and (and (and (and (and (and (and (and (and (and (and (and (and (and (and (and (and (and (and (and (and (and (and (and (and (and (and (and (and (and (and (and (and (and (and (and (and (and (and (and (and (and (and (and (and (and (and (and (and (and (and (and (and (and (and (and (and (and (and (and (and (and (and (and (and (and (and (and (and (and (and (or (or .def_125 .def_126) .def_128) (and (and (and (or (or M_0 .def_130) .def_132) (and (and (or .def_119 (or .def_134 .def_135)) (and (or (or K_0 .def_135) .def_139) (and (and (and (and (and (and (and (and (and (and (and (and (and (and (and (or (or .def_123 .def_143) .def_145) (and (or .def_145 (or .def_119 .def_148)) (and (and (and (and (and (and (and (and (and (and (and (and (and (and (and (and (and (and (and (and (and (or (or .def_151 .def_152) .def_154) (and (and (and (and (and (and (or (or .def_156 .def_157) .def_159) (and (or .def_145 (or .def_157 .def_162)) .def_174)) .def_179) .def_182) .def_185) .def_188) .def_193)) .def_198) .def_201) .def_204) .def_207) .def_210) .def_213) .def_219) .def_224) .def_228) .def_231) .def_234) .def_237) .def_240) .def_244) .def_248) .def_251) .def_254) .def_257) .def_260) .def_263))) .def_270) .def_274) .def_277) .def_280) .def_283) .def_286) .def_290) .def_294) .def_297) .def_300) .def_303) .def_306) .def_309) .def_314))) .def_321)) .def_326) .def_331)) .def_336) .def_340) .def_344) .def_347) .def_350) .def_353) .def_358) .def_361) .def_364) .def_367) .def_370) .def_372) .def_375) .def_379) .def_382) .def_385) .def_388) .def_391) .def_394) .def_397) .def_402) .def_414) .def_421) .def_424) .def_427) .def_433) .def_438) .def_440) .def_443) .def_450) .def_458) .def_461) .def_469) .def_476) .def_479) .def_487) .def_494) .def_498) .def_505) .def_513) .def_515) .def_518) .def_523) .def_529) .def_533) .def_538) .def_544) .def_546) .def_549) .def_553) .def_558) .def_564) .def_566) .def_569) .def_574) .def_579) .def_585) .def_587) .def_590) .def_593) .def_596) .def_599) .def_601) .def_604) .def_610) .def_615) .def_619) .def_622) .def_625) .def_628) .def_631) .def_634) .def_637) .def_640) .def_643) .def_646) .def_649) .def_653)))) .loc.15)) (and (= .y.11 0) (and (= .y.7 .y.12) (and (not .loc.8) (and .loc.14 .def_665))))) (and (= D3_0 .y.13) (and (or .def_126 (or .def_125 .def_128)) (and (or .def_162 (or .def_145 .def_157)) (and (or .def_156 (or .def_157 .def_159)) (and (or .def_130 (or M_0 .def_132)) (and (or .def_151 (or .def_152 .def_154)) (and (or .def_135 (or K_0 .def_139)) (and (or .def_148 (or .def_119 .def_145)) (and (or .def_135 (or .def_119 .def_134)) (and (or .def_143 (or .def_123 .def_145)) (and (or N3_0 .def_377) (and (or Y3_0 .def_123) (and (= (+ C3_0 (* (- 1) .y.11)) (- 1)) (and (or S3_0 .def_120) (and .def_665 (and .loc.14 (and .loc.8 (and .def_653 (and .def_649 (and .def_646 (and .def_643 (and .def_640 (and .def_637 (and .def_634 (and .def_631 (and .def_628 (and .def_625 (and .def_622 (and .def_619 (and .def_615 (and .def_610 (and .def_604 (and .def_601 (and .def_599 (and .def_596 (and .def_593 (and .def_590 (and .def_587 (and .def_585 (and .def_579 (and .def_574 (and .def_569 (and .def_566 (and .def_564 (and .def_558 (and .def_553 (and .def_549 (and .def_546 (and .def_544 (and .def_538 (and .def_533 (and .def_529 (and .def_523 (and .def_518 (and .def_515 (and .def_513 (and .def_505 (and .def_498 (and .def_494 (and .def_487 (and .def_479 (and .def_476 (and .def_469 (and .def_461 (and .def_458 (and .def_450 (and .def_443 (and .def_440 (and .def_438 (and .def_433 (and .def_427 (and .def_424 (and .def_421 (and .def_414 (and .def_402 (and .def_397 (and .def_394 (and .def_391 (and .def_388 (and .def_385 (and .def_382 (and .def_379 (and .def_375 (and .def_372 (and .def_370 (and .def_367 (and .def_364 (and .def_361 (and .def_358 (and .def_353 (and .def_350 (and .def_347 (and .def_344 (and .def_340 (and .def_336 (and .def_331 (and .def_326 (and .def_321 (and .def_314 (and .def_309 (and .def_306 (and .def_303 (and .def_300 (and .def_297 (and .def_294 (and .def_290 (and .def_286 (and .def_283 (and .def_280 (and .def_277 (and .def_274 (and .def_270 (and .def_263 (and .def_260 (and .def_257 (and .def_254 (and .def_251 (and .def_248 (and .def_244 (and .def_240 (and .def_237 (and .def_234 (and .def_231 (and .def_228 (and .def_224 (and .def_219 (and .def_213 (and .def_210 (and .def_207 (and .def_204 (and .def_201 (and .def_198 (and .def_193 (and .def_188 (and .def_185 (and .def_182 (and .def_174 .def_179)))))))))))))))))))))))))))))))))))))))))))))))))))))))))))))))))))))))))))))))))))))))))))))))))))))))))))))))))))))))))))))))))))))))))))))))))))))))))))))))))))))))))))))))))))))))))))))))))))))))))))))))))))))))))))))))))))))))))))))))))))))))))))))))))))))))))))))))))))))))))))))))))))))))))))))) (state |.y.10| |.y.11| |.y.12| |.y.13| |.loc.14| |.loc.15| |.xtv.1| |.xtv.2| |.xtv.3| |.xtv.4| |.xtv.5| |.xtv.6| |.xtv.7| |.xtv.8| |.xtv.9| |.xtv.10| |.xtv.11| |.xtv.12| |.xtv.13| |.xtv.14| |.xtv.15| |.xtv.16| |.xtv.17| |.xtv.18| |.xtv.19| |.xtv.20| |.xtv.21| |.xtv.22| |.xtv.23| |.xtv.24| |.xtv.25| |.xtv.26| |.xtv.27| |.xtv.28| |.xtv.29| |.xtv.30| |.xtv.31| |.xtv.32| |.xtv.33| |.xtv.34| |.xtv.35| |.xtv.36| |.xtv.37| |.xtv.38| |.xtv.39| |.xtv.40| |.xtv.41| |.xtv.42| |.xtv.43| |.xtv.44| |.xtv.45| |.xtv.46| |.xtv.47| |.xtv.48| |.xtv.49| |.xtv.50| |.xtv.51| |.xtv.52| |.xtv.53| |.xtv.54| |.xtv.55| |.xtv.56| |.xtv.57| |.xtv.58| |.xtv.59| |.xtv.60| |.xtv.61| |.xtv.62| |.xtv.63| |.xtv.64| |.xtv.65| |.xtv.66| |.xtv.67| |.xtv.68| |.xtv.69| |.xtv.70| |.xtv.71| |.xtv.72| |.xtv.73| |.xtv.74| |.xtv.75| |.xtv.76| |.xtv.77| |.xtv.78| |.xtv.79| |.xtv.80| |.xtv.81| |.xtv.82| |.xtv.83| |.xtv.84| |.xtv.85| |.xtv.86| |.xtv.87| |.xtv.88| |.xtv.89| |.xtv.90| |.xtv.91| |.xtv.92| |.xtv.93| |.xtv.94| |.xtv.95| |.xtv.96|))))
(assert (forall ((|.y.7| (Array Int Int)) (|C3_0| Int) (|A_2| (Array Int Int)) (|D3_0| Int) (|.loc.8| Bool) (|.loc.9| Bool) (|X_0| Int) (|D1_0| Bool) (|V_0| Int) (|P_0| Bool) (|F1_0| Int) (|S1_0| Bool) (|E1_0| Int) (|C1_0| (Array Int Int)) (|B1_0| (Array Int Int)) (|W_0| (Array Int Int)) (|Z1_0| Int) (|J2_0| Bool) (|A2_0| Bool) (|R1_0| Bool) (|U1_0| Int) (|K1_0| Int) (|T1_0| Int) (|Q1_0| (Array Int Int)) (|P1_0| (Array Int Int)) (|J1_0| (Array Int Int)) (|P2_0| Int) (|Z2_0| Bool) (|D2_0| Bool) (|Q2_0| Bool) (|E2_0| Bool) (|C2_0| Int) (|X1_0| Int) (|H2_0| Int) (|F2_0| (Array Int Int)) (|B2_0| (Array Int Int)) (|W1_0| (Array Int Int)) (|K2_0| Bool) (|I2_0| Int) (|G2_0| (Array Int Int)) (|Y1_0| (Array Int Int)) (|X3_0| Bool) (|T2_0| Bool) (|J3_0| Bool) (|U2_0| Bool) (|S2_0| Int) (|N2_0| Int) (|X2_0| Int) (|V2_0| (Array Int Int)) (|R2_0| (Array Int Int)) (|M2_0| (Array Int Int)) (|A3_0| Bool) (|Y2_0| Int) (|W2_0| (Array Int Int)) (|O2_0| (Array Int Int)) (|J_0| Bool) (|L_0| Bool) (|M_0| Bool) (|I1_0| Int) (|N_0| Bool) (|O_0| Bool) (|Z_0| Bool) (|Q_0| Bool) (|A1_0| Int) (|Y_0| (Array Int Int)) (|U_0| (Array Int Int)) (|M1_0| Bool) (|N1_0| Bool) (|O1_0| Int) (|L1_0| (Array Int Int)) (|H1_0| (Array Int Int)) (|M3_0| Bool) (|Q3_0| Bool) (|E3_0| Bool) (|V3_0| Int) (|P3_0| Int) (|R3_0| Bool) (|G3_0| Int) (|T3_0| (Array Int Int)) (|O3_0| (Array Int Int)) (|F3_0| (Array Int Int)) (|S3_0| Bool) (|E_1| Int) (|R_0| Bool) (|T_0| Int) (|G1_0| Int) (|V1_0| Int) (|L2_0| Int) (|I_0| Int) (|B3_0| Int) (|I3_0| Int) (|K_0| Bool) (|H_1| Int) (|G_1| Int) (|F_1| Int) (|N3_0| Bool) (|K3_0| (Array Int Int)) (|L3_0| Int) (|U3_0| (Array Int Int)) (|H3_0| (Array Int Int)) (|W3_0| Int) (|Y3_0| Bool) (|.loc.14| Bool) (|.loc.15| Bool) (|.y.11| Int) (|.y.12| (Array Int Int)) (|.y.13| Int) (|.y.10| (Array Int Int)) (|.xtv.1| Int) (|.xtv.2| Bool) (|.xtv.3| Int) (|.xtv.4| Bool) (|.xtv.5| Int) (|.xtv.6| Bool) (|.xtv.7| Int) (|.xtv.8| (Array Int Int)) (|.xtv.9| (Array Int Int)) (|.xtv.10| (Array Int Int)) (|.xtv.11| Int) (|.xtv.12| Bool) (|.xtv.13| Bool) (|.xtv.14| Bool) (|.xtv.15| Int) (|.xtv.16| Int) (|.xtv.17| Int) (|.xtv.18| (Array Int Int)) (|.xtv.19| (Array Int Int)) (|.xtv.20| (Array Int Int)) (|.xtv.21| Int) (|.xtv.22| Bool) (|.xtv.23| Bool) (|.xtv.24| Bool) (|.xtv.25| Bool) (|.xtv.26| Int) (|.xtv.27| Int) (|.xtv.28| Int) (|.xtv.29| (Array Int Int)) (|.xtv.30| (Array Int Int)) (|.xtv.31| (Array Int Int)) (|.xtv.32| Bool) (|.xtv.33| Int) (|.xtv.34| (Array Int Int)) (|.xtv.35| (Array Int Int)) (|.xtv.36| Bool) (|.xtv.37| Bool) (|.xtv.38| Bool) (|.xtv.39| Bool) (|.xtv.40| Int) (|.xtv.41| Int) (|.xtv.42| Int) (|.xtv.43| (Array Int Int)) (|.xtv.44| (Array Int Int)) (|.xtv.45| (Array Int Int)) (|.xtv.46| Bool) (|.xtv.47| Int) (|.xtv.48| (Array Int Int)) (|.xtv.49| (Array Int Int)) (|.xtv.50| Bool) (|.xtv.51| Bool) (|.xtv.52| Bool) (|.xtv.53| Int) (|.xtv.54| Bool) (|.xtv.55| Bool) (|.xtv.56| Bool) (|.xtv.57| Bool) (|.xtv.58| Int) (|.xtv.59| (Array Int Int)) (|.xtv.60| (Array Int Int)) (|.xtv.61| Bool) (|.xtv.62| Bool) (|.xtv.63| Int) (|.xtv.64| (Array Int Int)) (|.xtv.65| (Array Int Int)) (|.xtv.66| Bool) (|.xtv.67| Bool) (|.xtv.68| Bool) (|.xtv.69| Int) (|.xtv.70| Int) (|.xtv.71| Bool) (|.xtv.72| Int) (|.xtv.73| (Array Int Int)) (|.xtv.74| (Array Int Int)) (|.xtv.75| (Array Int Int)) (|.xtv.76| Bool) (|.xtv.77| Int) (|.xtv.78| Bool) (|.xtv.79| Int) (|.xtv.80| Int) (|.xtv.81| Int) (|.xtv.82| Int) (|.xtv.83| Int) (|.xtv.84| Int) (|.xtv.85| Int) (|.xtv.86| Bool) (|.xtv.87| Int) (|.xtv.88| Int) (|.xtv.89| Int) (|.xtv.90| Bool) (|.xtv.91| (Array Int Int)) (|.xtv.92| Int) (|.xtv.93| (Array Int Int)) (|.xtv.94| (Array Int Int)) (|.xtv.95| Int) (|.xtv.96| Bool)) (=> (state |.y.7| |C3_0| |A_2| |D3_0| |.loc.8| |.loc.9| |X_0| |D1_0| |V_0| |P_0| |F1_0| |S1_0| |E1_0| |C1_0| |B1_0| |W_0| |Z1_0| |J2_0| |A2_0| |R1_0| |U1_0| |K1_0| |T1_0| |Q1_0| |P1_0| |J1_0| |P2_0| |Z2_0| |D2_0| |Q2_0| |E2_0| |C2_0| |X1_0| |H2_0| |F2_0| |B2_0| |W1_0| |K2_0| |I2_0| |G2_0| |Y1_0| |X3_0| |T2_0| |J3_0| |U2_0| |S2_0| |N2_0| |X2_0| |V2_0| |R2_0| |M2_0| |A3_0| |Y2_0| |W2_0| |O2_0| |J_0| |L_0| |M_0| |I1_0| |N_0| |O_0| |Z_0| |Q_0| |A1_0| |Y_0| |U_0| |M1_0| |N1_0| |O1_0| |L1_0| |H1_0| |M3_0| |Q3_0| |E3_0| |V3_0| |P3_0| |R3_0| |G3_0| |T3_0| |O3_0| |F3_0| |S3_0| |E_1| |R_0| |T_0| |G1_0| |V1_0| |L2_0| |I_0| |B3_0| |I3_0| |K_0| |H_1| |G_1| |F_1| |N3_0| |K3_0| |L3_0| |U3_0| |H3_0| |W3_0| |Y3_0|) (not (and .loc.9 (not .loc.8))))))
(check-sat)
